p cnf 17 46
c A -> 16
c B -> 17
c Cin -> 9
-2 1 0
-3 1 0
2 3 -1 0
4 5 -2 0
-4 -5 -2 0
4 -5 2 0
-4 5 2 0
6 7 -3 0
-6 -7 -3 0
6 -7 3 0
-6 7 3 0
8 9 -4 0
-8 -9 -4 0
8 -9 4 0
-8 9 4 0
10 9 -5 0
-10 -9 -5 0
10 -9 5 0
-10 9 5 0
-12 6 0
-13 6 0
12 13 -6 0
-14 7 0
-15 7 0
14 15 -7 0
16 17 -8 0
-16 -17 -8 0
16 -17 8 0
-16 17 8 0
16 17 -10 0
-16 -17 -10 0
16 -17 10 0
-16 17 10 0
16 -12 0
17 -12 0
-16 -17 12 0
8 -13 0
9 -13 0
-8 -9 13 0
16 -14 0
17 -14 0
-16 -17 14 0
10 -15 0
9 -15 0
-10 -9 15 0
1 0
